n_res = 4;
rcap = [21, 29, 88, 76];
rtype = [1, 1, 2, 2];
n_tasks = 12;
modes = [ {1, 2, 3}, {4, 5, 6}, {7, 8, 9}, {10, 11, 12}, {13, 14, 15}, {16, 17, 18}, {19, 20, 21}, {22, 23, 24}, {25, 26, 27}, {28, 29, 30}, {31, 32, 33}, {34, 35, 36} ];
succ = [ {5, 6, 8}, {4, 5}, {6}, {7, 9, 10}, {7, 9}, {9, 10}, {11, 12}, {10, 11, 12}, {11, 12}, {}, {}, {} ];
n_opt = 36;
dur = [7, 7, 9, 2, 8, 9, 1, 5, 7, 1, 3, 8, 5, 5, 9, 4, 7, 7, 2, 3, 10, 2, 5, 10, 2, 6, 10, 1, 2, 3, 1, 1, 8, 7, 7, 9];
rreq = [|  4,  0,  0,  5,  2,  0,  0,  2,  0,  3,  0,  0,  0, 10,  0,  0,  0,  7,  7,  0,  0,  4,  0,  0,  0, 10,  7,  0,  5,  0,  9,  0, 10, 10,  0,  9
        |  0,  5,  5,  0,  0,  3, 10,  0,  9,  0,  9,  9,  6,  0,  6,  7,  1,  0,  0,  4,  4,  0,  7,  6,  4,  0,  0,  7,  0,  6,  0,  1,  0,  0,  4,  0
        |  9,  9,  7,  6,  5,  5,  9,  9,  8,  7,  4,  2,  9, 10,  8,  7,  6,  6,  8,  5,  3,  7,  5,  4, 10, 10, 10,  8,  4,  2,  5,  4,  3, 10,  9,  6
        | 10, 10,  1, 10,  8,  8, 10,  8,  4,  8,  6,  3,  6,  6,  3,  6,  1,  2,  9,  7,  7,  6,  5,  4,  5,  5,  3,  9,  9,  8,  2,  2,  2,  4,  4,  4 |];
